
(set-logic ALL) 

(declare-datatype MyList ((Nil) (Cons (head Real) (tail MyList)) )) 
(declare-fun l0 () MyList) 
(declare-fun l1 () MyList) 
(declare-fun l2 () MyList) 
(declare-fun l3 () MyList) 
(declare-fun i0 () Real) 
(declare-fun i1 () Real) 
(assert (is-Cons Nil) )
(assert (or (= l0 Nil) (= l3 Nil) (= l1 Nil) (is-Nil l1)) )
(assert (= l3 Nil) )
(assert (or (= l2 Nil) (is-Cons Nil)) )
(assert (and (= l1 l0) (= l0 Nil)) )
(assert (not (is-Cons Nil)) )
(assert (not (is-Nil Nil)) )
(assert (not (= l1 Nil)) )
(check-sat)
